(set-info :smt-lib-version 2.6)
(set-logic QF_NIA)
(set-info :source |
Generated by: Cristina Borralleras, Daniel Larraz, Albert Oliveras, Enric Rodriguez-Carbonell, Albert Rubio
Generated on: 2017-04-27
Generator: VeryMax
Application: Termination proving
Target solver: barcelogic
|)
(set-info :license "https://creativecommons.org/licenses/by/4.0/")
(set-info :category "industrial")
(set-info :status sat)
(declare-fun Nl2arg11 () Int)
(declare-fun Nl2arg21 () Int)
(declare-fun Nl2arg31 () Int)
(declare-fun Nl2arg41 () Int)
(declare-fun Nl2arg51 () Int)
(declare-fun Nl2arg61 () Int)
(declare-fun Nl2arg12 () Int)
(declare-fun Nl2arg22 () Int)
(declare-fun Nl2arg32 () Int)
(declare-fun Nl2arg42 () Int)
(declare-fun Nl2arg52 () Int)
(declare-fun Nl2arg62 () Int)
(declare-fun lam0n0 () Int)
(declare-fun lam0n1 () Int)
(declare-fun lam0n2 () Int)
(declare-fun lam0n3 () Int)
(declare-fun lam0n4 () Int)
(declare-fun lam0n5 () Int)
(declare-fun lam0n6 () Int)
(declare-fun lam0n7 () Int)
(declare-fun lam0n8 () Int)
(declare-fun lam0n9 () Int)
(declare-fun lam0n10 () Int)
(declare-fun lam0n11 () Int)
(declare-fun lam0n12 () Int)
(declare-fun lam0n13 () Int)
(declare-fun lam0n14 () Int)
(declare-fun lam0n15 () Int)
(declare-fun lam0n16 () Int)
(declare-fun lam0n17 () Int)
(declare-fun lam0n19 () Int)
(declare-fun lam0n20 () Int)
(declare-fun Nl2CT1 () Int)
(declare-fun Nl2CT2 () Int)
(declare-fun lam0n18 () Int)
(declare-fun lam1n0 () Int)
(declare-fun lam1n1 () Int)
(declare-fun lam1n2 () Int)
(declare-fun lam1n3 () Int)
(declare-fun lam1n4 () Int)
(declare-fun lam1n5 () Int)
(declare-fun lam1n6 () Int)
(declare-fun lam1n7 () Int)
(declare-fun lam1n8 () Int)
(declare-fun lam1n9 () Int)
(declare-fun lam1n10 () Int)
(declare-fun lam1n11 () Int)
(declare-fun lam1n12 () Int)
(declare-fun lam1n13 () Int)
(declare-fun lam1n14 () Int)
(declare-fun lam1n15 () Int)
(declare-fun lam1n16 () Int)
(declare-fun lam1n17 () Int)
(declare-fun lam1n19 () Int)
(declare-fun lam1n20 () Int)
(declare-fun lam1n18 () Int)
(declare-fun lam2n0 () Int)
(declare-fun lam2n1 () Int)
(declare-fun lam2n2 () Int)
(declare-fun lam2n3 () Int)
(declare-fun lam2n4 () Int)
(declare-fun lam2n5 () Int)
(declare-fun lam2n6 () Int)
(declare-fun lam2n7 () Int)
(declare-fun lam2n8 () Int)
(declare-fun lam2n9 () Int)
(declare-fun lam2n10 () Int)
(declare-fun lam2n11 () Int)
(declare-fun lam2n12 () Int)
(declare-fun lam2n13 () Int)
(declare-fun lam2n14 () Int)
(declare-fun lam2n15 () Int)
(declare-fun lam2n16 () Int)
(declare-fun lam2n17 () Int)
(declare-fun lam2n19 () Int)
(declare-fun lam2n20 () Int)
(declare-fun lam2n18 () Int)
(declare-fun lam3n0 () Int)
(declare-fun lam3n1 () Int)
(declare-fun lam3n2 () Int)
(declare-fun lam3n3 () Int)
(declare-fun lam3n4 () Int)
(declare-fun lam3n5 () Int)
(declare-fun lam3n6 () Int)
(declare-fun lam3n7 () Int)
(declare-fun lam3n8 () Int)
(declare-fun lam3n9 () Int)
(declare-fun lam3n10 () Int)
(declare-fun lam3n11 () Int)
(declare-fun lam3n12 () Int)
(declare-fun lam3n13 () Int)
(declare-fun lam3n14 () Int)
(declare-fun lam3n15 () Int)
(declare-fun lam3n16 () Int)
(declare-fun lam3n17 () Int)
(declare-fun lam3n18 () Int)
(declare-fun lam3n19 () Int)
(declare-fun lam3n21 () Int)
(declare-fun lam3n22 () Int)
(declare-fun lam3n20 () Int)
(declare-fun lam4n0 () Int)
(declare-fun lam4n1 () Int)
(declare-fun lam4n2 () Int)
(declare-fun lam4n3 () Int)
(declare-fun lam4n4 () Int)
(declare-fun lam4n5 () Int)
(declare-fun lam4n6 () Int)
(declare-fun lam4n7 () Int)
(declare-fun lam4n8 () Int)
(declare-fun lam4n9 () Int)
(declare-fun lam4n10 () Int)
(declare-fun lam4n11 () Int)
(declare-fun lam4n12 () Int)
(declare-fun lam4n13 () Int)
(declare-fun lam4n14 () Int)
(declare-fun lam4n15 () Int)
(declare-fun lam4n16 () Int)
(declare-fun lam4n17 () Int)
(declare-fun lam4n18 () Int)
(declare-fun lam4n19 () Int)
(declare-fun lam4n21 () Int)
(declare-fun lam4n22 () Int)
(declare-fun lam4n20 () Int)
(declare-fun lam5n0 () Int)
(declare-fun lam5n1 () Int)
(declare-fun lam5n2 () Int)
(declare-fun lam5n3 () Int)
(declare-fun lam5n4 () Int)
(declare-fun lam5n5 () Int)
(declare-fun lam5n6 () Int)
(declare-fun lam5n7 () Int)
(declare-fun lam5n8 () Int)
(declare-fun lam5n9 () Int)
(declare-fun lam5n10 () Int)
(declare-fun lam5n11 () Int)
(declare-fun lam5n12 () Int)
(declare-fun lam5n13 () Int)
(declare-fun lam5n14 () Int)
(declare-fun lam5n15 () Int)
(declare-fun lam5n16 () Int)
(declare-fun lam5n17 () Int)
(declare-fun lam5n18 () Int)
(declare-fun lam5n19 () Int)
(declare-fun lam5n21 () Int)
(declare-fun lam5n22 () Int)
(declare-fun lam5n20 () Int)
(declare-fun lam6n0 () Int)
(declare-fun lam6n1 () Int)
(declare-fun lam6n2 () Int)
(declare-fun lam6n3 () Int)
(declare-fun lam6n4 () Int)
(declare-fun lam6n5 () Int)
(declare-fun lam6n6 () Int)
(declare-fun lam6n7 () Int)
(declare-fun lam6n8 () Int)
(declare-fun lam6n9 () Int)
(declare-fun lam6n10 () Int)
(declare-fun lam6n11 () Int)
(declare-fun lam6n12 () Int)
(declare-fun lam6n13 () Int)
(declare-fun lam6n14 () Int)
(declare-fun lam6n15 () Int)
(declare-fun lam6n16 () Int)
(declare-fun lam6n17 () Int)
(declare-fun lam6n19 () Int)
(declare-fun lam6n20 () Int)
(declare-fun lam6n18 () Int)
(declare-fun lam7n0 () Int)
(declare-fun lam7n1 () Int)
(declare-fun lam7n2 () Int)
(declare-fun lam7n3 () Int)
(declare-fun lam7n4 () Int)
(declare-fun lam7n5 () Int)
(declare-fun lam7n6 () Int)
(declare-fun lam7n7 () Int)
(declare-fun lam7n8 () Int)
(declare-fun lam7n9 () Int)
(declare-fun lam7n10 () Int)
(declare-fun lam7n11 () Int)
(declare-fun lam7n12 () Int)
(declare-fun lam7n13 () Int)
(declare-fun lam7n14 () Int)
(declare-fun lam7n15 () Int)
(declare-fun lam7n16 () Int)
(declare-fun lam7n17 () Int)
(declare-fun lam7n19 () Int)
(declare-fun lam7n20 () Int)
(declare-fun lam7n18 () Int)
(declare-fun lam8n0 () Int)
(declare-fun lam8n1 () Int)
(declare-fun lam8n2 () Int)
(declare-fun lam8n3 () Int)
(declare-fun lam8n4 () Int)
(declare-fun lam8n5 () Int)
(declare-fun lam8n6 () Int)
(declare-fun lam8n7 () Int)
(declare-fun lam8n8 () Int)
(declare-fun lam8n9 () Int)
(declare-fun lam8n10 () Int)
(declare-fun lam8n11 () Int)
(declare-fun lam8n12 () Int)
(declare-fun lam8n13 () Int)
(declare-fun lam8n14 () Int)
(declare-fun lam8n15 () Int)
(declare-fun lam8n16 () Int)
(declare-fun lam8n17 () Int)
(declare-fun lam8n19 () Int)
(declare-fun lam8n20 () Int)
(declare-fun lam8n18 () Int)
(declare-fun lam9n0 () Int)
(declare-fun lam9n1 () Int)
(declare-fun lam9n2 () Int)
(declare-fun lam9n3 () Int)
(declare-fun lam9n4 () Int)
(declare-fun lam9n5 () Int)
(declare-fun lam10n0 () Int)
(declare-fun lam10n1 () Int)
(declare-fun lam10n2 () Int)
(declare-fun lam10n3 () Int)
(declare-fun lam10n4 () Int)
(declare-fun lam10n5 () Int)
(declare-fun undef7 () Int)
(declare-fun undef68 () Int)
(declare-fun undef9 () Int)
(declare-fun undef10 () Int)
(declare-fun undef12 () Int)
(declare-fun lam14n0 () Int)
(declare-fun lam14n1 () Int)
(declare-fun lam14n2 () Int)
(declare-fun lam14n3 () Int)
(declare-fun lam14n4 () Int)
(declare-fun lam14n5 () Int)
(declare-fun lam14n6 () Int)
(declare-fun lam14n7 () Int)
(declare-fun lam14n8 () Int)
(declare-fun lam14n9 () Int)
(declare-fun lam14n10 () Int)
(declare-fun lam14n11 () Int)
(declare-fun lam14n12 () Int)
(declare-fun lam14n13 () Int)
(declare-fun lam14n14 () Int)
(declare-fun lam14n15 () Int)
(declare-fun lam14n16 () Int)
(declare-fun lam14n17 () Int)
(declare-fun lam14n19 () Int)
(declare-fun lam14n20 () Int)
(declare-fun RFN1_CT () Int)
(declare-fun RFN1_arg1 () Int)
(declare-fun RFN1_arg2 () Int)
(declare-fun RFN1_arg3 () Int)
(declare-fun RFN1_arg4 () Int)
(declare-fun RFN1_arg5 () Int)
(declare-fun RFN1_arg6 () Int)
(declare-fun lam14n18 () Int)
(declare-fun lam12n0 () Int)
(declare-fun lam12n1 () Int)
(declare-fun lam12n2 () Int)
(declare-fun lam12n3 () Int)
(declare-fun lam12n4 () Int)
(declare-fun lam12n5 () Int)
(declare-fun lam12n6 () Int)
(declare-fun lam12n7 () Int)
(declare-fun lam12n8 () Int)
(declare-fun lam12n9 () Int)
(declare-fun lam12n10 () Int)
(declare-fun lam12n11 () Int)
(declare-fun lam12n12 () Int)
(declare-fun lam12n13 () Int)
(declare-fun lam12n14 () Int)
(declare-fun lam12n15 () Int)
(declare-fun lam12n16 () Int)
(declare-fun lam12n17 () Int)
(declare-fun lam12n19 () Int)
(declare-fun lam12n20 () Int)
(declare-fun lam12n18 () Int)
(declare-fun lam13n0 () Int)
(declare-fun lam13n1 () Int)
(declare-fun lam13n2 () Int)
(declare-fun lam13n3 () Int)
(declare-fun lam13n4 () Int)
(declare-fun lam13n5 () Int)
(declare-fun lam13n6 () Int)
(declare-fun lam13n7 () Int)
(declare-fun lam13n8 () Int)
(declare-fun lam13n9 () Int)
(declare-fun lam13n10 () Int)
(declare-fun lam13n11 () Int)
(declare-fun lam13n12 () Int)
(declare-fun lam13n13 () Int)
(declare-fun lam13n14 () Int)
(declare-fun lam13n15 () Int)
(declare-fun lam13n16 () Int)
(declare-fun lam13n17 () Int)
(declare-fun lam13n19 () Int)
(declare-fun lam13n20 () Int)
(declare-fun lam13n18 () Int)
(declare-fun lam11n0 () Int)
(declare-fun lam11n1 () Int)
(declare-fun lam11n2 () Int)
(declare-fun lam11n3 () Int)
(declare-fun lam11n4 () Int)
(declare-fun lam11n5 () Int)
(declare-fun lam11n6 () Int)
(declare-fun lam11n7 () Int)
(declare-fun lam11n8 () Int)
(declare-fun lam11n9 () Int)
(declare-fun lam11n10 () Int)
(declare-fun lam11n11 () Int)
(declare-fun lam11n12 () Int)
(declare-fun lam11n13 () Int)
(declare-fun lam11n14 () Int)
(declare-fun lam11n15 () Int)
(declare-fun lam11n16 () Int)
(declare-fun lam11n17 () Int)
(declare-fun lam11n19 () Int)
(declare-fun lam11n20 () Int)
(declare-fun lam11n18 () Int)
(assert ( and ( <= ( - 1 ) Nl2arg11 ) ( <= Nl2arg11 1 ) ( <= ( - 1 ) Nl2arg21 ) ( <= Nl2arg21 1 ) ( <= ( - 1 ) Nl2arg31 ) ( <= Nl2arg31 1 ) ( <= ( - 1 ) Nl2arg41 ) ( <= Nl2arg41 1 ) ( <= ( - 1 ) Nl2arg51 ) ( <= Nl2arg51 1 ) ( <= ( - 1 ) Nl2arg61 ) ( <= Nl2arg61 1 ) ( <= ( - 1 ) Nl2arg12 ) ( <= Nl2arg12 1 ) ( <= ( - 1 ) Nl2arg22 ) ( <= Nl2arg22 1 ) ( <= ( - 1 ) Nl2arg32 ) ( <= Nl2arg32 1 ) ( <= ( - 1 ) Nl2arg42 ) ( <= Nl2arg42 1 ) ( <= ( - 1 ) Nl2arg52 ) ( <= Nl2arg52 1 ) ( <= ( - 1 ) Nl2arg62 ) ( <= Nl2arg62 1 ) ))
(assert ( or ( and ( >= lam0n0 0 ) ( >= lam0n1 0 ) ( >= lam0n2 0 ) ( >= lam0n3 0 ) ( >= lam0n4 0 ) ( >= lam0n5 0 ) ( >= lam0n6 0 ) ( >= lam0n7 0 ) ( >= lam0n8 0 ) ( >= lam0n9 0 ) ( >= lam0n10 0 ) ( >= lam0n11 0 ) ( >= lam0n12 0 ) ( >= lam0n13 0 ) ( >= lam0n14 0 ) ( >= lam0n15 0 ) ( >= lam0n16 0 ) ( >= lam0n17 0 ) ( >= lam0n19 0 ) ( >= lam0n20 0 ) ( > ( + ( * 1 lam0n0 ) ( * 1 lam0n1 ) ( * 1 lam0n2 ) ( * 1 lam0n3 ) ( * 1 lam0n4 ) ( * 1 lam0n5 ) ( * 1 lam0n6 ) ( * 1 lam0n7 ) ( * ( - 1 ) lam0n16 ) ( * ( - 1 ) lam0n17 ) ( * Nl2CT1 lam0n19 ) ( * Nl2CT2 lam0n20 ) ( - 1 ) ) 0 ) ( = ( + ( * ( - 1 ) lam0n0 ) ( * ( - 1 ) lam0n8 ) ( * Nl2arg11 lam0n19 ) ( * Nl2arg12 lam0n20 ) ) 0 ) ( = ( + ( * ( - 1 ) lam0n16 ) ( * Nl2arg21 lam0n19 ) ( * Nl2arg22 lam0n20 ) ) 0 ) ( = ( + ( * ( - 1 ) lam0n9 ) ( * ( - 1 ) lam0n16 ) ( * ( - 1 ) lam0n17 ) ( * 1 lam0n18 ) ( * Nl2arg31 lam0n19 ) ( * Nl2arg32 lam0n20 ) ) 0 ) ( = ( + ( * ( - 1 ) lam0n1 ) ( * ( - 1 ) lam0n2 ) ( * ( - 1 ) lam0n3 ) ( * ( - 1 ) lam0n10 ) ( * Nl2arg41 lam0n19 ) ( * Nl2arg42 lam0n20 ) ) 0 ) ( = ( + ( * ( - 1 ) lam0n11 ) ( * Nl2arg51 lam0n19 ) ( * Nl2arg52 lam0n20 ) ) 0 ) ( = ( + ( * ( - 1 ) lam0n4 ) ( * ( - 1 ) lam0n5 ) ( * ( - 1 ) lam0n6 ) ( * ( - 1 ) lam0n12 ) ( * Nl2arg61 lam0n19 ) ( * Nl2arg62 lam0n20 ) ) 0 ) ( = ( + ( * ( - 1 ) lam0n7 ) ( * 1 lam0n8 ) ( * 1 lam0n10 ) ( * 1 lam0n12 ) ( * 1 lam0n17 ) ) 0 ) ( = ( + ( * 1 lam0n9 ) ( * ( - 1 ) lam0n13 ) ) 0 ) ( = ( + ( * 1 lam0n2 ) ( * 1 lam0n5 ) ( * ( - 1 ) lam0n14 ) ) 0 ) ( = ( + ( * 1 lam0n3 ) ( * 1 lam0n6 ) ( * ( - 1 ) lam0n15 ) ) 0 ) ( = ( * 1 lam0n11 ) 0 ) ) ( and ( >= lam1n0 0 ) ( >= lam1n1 0 ) ( >= lam1n2 0 ) ( >= lam1n3 0 ) ( >= lam1n4 0 ) ( >= lam1n5 0 ) ( >= lam1n6 0 ) ( >= lam1n7 0 ) ( >= lam1n8 0 ) ( >= lam1n9 0 ) ( >= lam1n10 0 ) ( >= lam1n11 0 ) ( >= lam1n12 0 ) ( >= lam1n13 0 ) ( >= lam1n14 0 ) ( >= lam1n15 0 ) ( >= lam1n16 0 ) ( >= lam1n17 0 ) ( >= lam1n19 0 ) ( >= lam1n20 0 ) ( > ( + ( * 1 lam1n0 ) ( * 1 lam1n1 ) ( * 1 lam1n2 ) ( * 1 lam1n3 ) ( * 1 lam1n4 ) ( * 1 lam1n5 ) ( * 1 lam1n6 ) ( * 1 lam1n7 ) ( * ( - 1 ) lam1n16 ) ( * ( - 1 ) lam1n17 ) ( * Nl2CT1 lam1n19 ) ( * Nl2CT2 lam1n20 ) ( - 1 ( + ( + ( + ( + Nl2CT1 ( * Nl2arg11 0 ) ) ( * Nl2arg31 0 ) ) ( * Nl2arg41 0 ) ) ( * Nl2arg61 0 ) ) ) ) 0 ) ( = ( + ( * ( - 1 ) lam1n0 ) ( * ( - 1 ) lam1n8 ) ( * Nl2arg11 lam1n19 ) ( * Nl2arg12 lam1n20 ) ) 0 ) ( = ( + ( * ( - 1 ) lam1n16 ) ( * Nl2arg21 lam1n19 ) ( * Nl2arg22 lam1n20 ) ( - ( + 0 Nl2arg21 ) ) ) 0 ) ( = ( + ( * ( - 1 ) lam1n9 ) ( * ( - 1 ) lam1n16 ) ( * ( - 1 ) lam1n17 ) ( * 1 lam1n18 ) ( * Nl2arg31 lam1n19 ) ( * Nl2arg32 lam1n20 ) ) 0 ) ( = ( + ( * ( - 1 ) lam1n1 ) ( * ( - 1 ) lam1n2 ) ( * ( - 1 ) lam1n3 ) ( * ( - 1 ) lam1n10 ) ( * Nl2arg41 lam1n19 ) ( * Nl2arg42 lam1n20 ) ) 0 ) ( = ( + ( * ( - 1 ) lam1n11 ) ( * Nl2arg51 lam1n19 ) ( * Nl2arg52 lam1n20 ) ( - ( + 0 Nl2arg51 ) ) ) 0 ) ( = ( + ( * ( - 1 ) lam1n4 ) ( * ( - 1 ) lam1n5 ) ( * ( - 1 ) lam1n6 ) ( * ( - 1 ) lam1n12 ) ( * Nl2arg61 lam1n19 ) ( * Nl2arg62 lam1n20 ) ) 0 ) ( = ( + ( * ( - 1 ) lam1n7 ) ( * 1 lam1n8 ) ( * 1 lam1n10 ) ( * 1 lam1n12 ) ( * 1 lam1n17 ) ( - ( + 0 ( * Nl2arg11 1 ) ) ) ) 0 ) ( = ( + ( * 1 lam1n9 ) ( * ( - 1 ) lam1n13 ) ( - ( + 0 ( * Nl2arg31 1 ) ) ) ) 0 ) ( = ( + ( * 1 lam1n2 ) ( * 1 lam1n5 ) ( * ( - 1 ) lam1n14 ) ( - ( + 0 ( * Nl2arg41 1 ) ) ) ) 0 ) ( = ( + ( * 1 lam1n3 ) ( * 1 lam1n6 ) ( * ( - 1 ) lam1n15 ) ( - ( + 0 ( * Nl2arg61 1 ) ) ) ) 0 ) ( = ( * 1 lam1n11 ) 0 ) ) ))
(assert ( or ( and ( >= lam0n0 0 ) ( >= lam0n1 0 ) ( >= lam0n2 0 ) ( >= lam0n3 0 ) ( >= lam0n4 0 ) ( >= lam0n5 0 ) ( >= lam0n6 0 ) ( >= lam0n7 0 ) ( >= lam0n8 0 ) ( >= lam0n9 0 ) ( >= lam0n10 0 ) ( >= lam0n11 0 ) ( >= lam0n12 0 ) ( >= lam0n13 0 ) ( >= lam0n14 0 ) ( >= lam0n15 0 ) ( >= lam0n16 0 ) ( >= lam0n17 0 ) ( >= lam0n19 0 ) ( >= lam0n20 0 ) ( > ( + ( * 1 lam0n0 ) ( * 1 lam0n1 ) ( * 1 lam0n2 ) ( * 1 lam0n3 ) ( * 1 lam0n4 ) ( * 1 lam0n5 ) ( * 1 lam0n6 ) ( * 1 lam0n7 ) ( * ( - 1 ) lam0n16 ) ( * ( - 1 ) lam0n17 ) ( * Nl2CT1 lam0n19 ) ( * Nl2CT2 lam0n20 ) ( - 1 ) ) 0 ) ( = ( + ( * ( - 1 ) lam0n0 ) ( * ( - 1 ) lam0n8 ) ( * Nl2arg11 lam0n19 ) ( * Nl2arg12 lam0n20 ) ) 0 ) ( = ( + ( * ( - 1 ) lam0n16 ) ( * Nl2arg21 lam0n19 ) ( * Nl2arg22 lam0n20 ) ) 0 ) ( = ( + ( * ( - 1 ) lam0n9 ) ( * ( - 1 ) lam0n16 ) ( * ( - 1 ) lam0n17 ) ( * 1 lam0n18 ) ( * Nl2arg31 lam0n19 ) ( * Nl2arg32 lam0n20 ) ) 0 ) ( = ( + ( * ( - 1 ) lam0n1 ) ( * ( - 1 ) lam0n2 ) ( * ( - 1 ) lam0n3 ) ( * ( - 1 ) lam0n10 ) ( * Nl2arg41 lam0n19 ) ( * Nl2arg42 lam0n20 ) ) 0 ) ( = ( + ( * ( - 1 ) lam0n11 ) ( * Nl2arg51 lam0n19 ) ( * Nl2arg52 lam0n20 ) ) 0 ) ( = ( + ( * ( - 1 ) lam0n4 ) ( * ( - 1 ) lam0n5 ) ( * ( - 1 ) lam0n6 ) ( * ( - 1 ) lam0n12 ) ( * Nl2arg61 lam0n19 ) ( * Nl2arg62 lam0n20 ) ) 0 ) ( = ( + ( * ( - 1 ) lam0n7 ) ( * 1 lam0n8 ) ( * 1 lam0n10 ) ( * 1 lam0n12 ) ( * 1 lam0n17 ) ) 0 ) ( = ( + ( * 1 lam0n9 ) ( * ( - 1 ) lam0n13 ) ) 0 ) ( = ( + ( * 1 lam0n2 ) ( * 1 lam0n5 ) ( * ( - 1 ) lam0n14 ) ) 0 ) ( = ( + ( * 1 lam0n3 ) ( * 1 lam0n6 ) ( * ( - 1 ) lam0n15 ) ) 0 ) ( = ( * 1 lam0n11 ) 0 ) ) ( and ( >= lam2n0 0 ) ( >= lam2n1 0 ) ( >= lam2n2 0 ) ( >= lam2n3 0 ) ( >= lam2n4 0 ) ( >= lam2n5 0 ) ( >= lam2n6 0 ) ( >= lam2n7 0 ) ( >= lam2n8 0 ) ( >= lam2n9 0 ) ( >= lam2n10 0 ) ( >= lam2n11 0 ) ( >= lam2n12 0 ) ( >= lam2n13 0 ) ( >= lam2n14 0 ) ( >= lam2n15 0 ) ( >= lam2n16 0 ) ( >= lam2n17 0 ) ( >= lam2n19 0 ) ( >= lam2n20 0 ) ( > ( + ( * 1 lam2n0 ) ( * 1 lam2n1 ) ( * 1 lam2n2 ) ( * 1 lam2n3 ) ( * 1 lam2n4 ) ( * 1 lam2n5 ) ( * 1 lam2n6 ) ( * 1 lam2n7 ) ( * ( - 1 ) lam2n16 ) ( * ( - 1 ) lam2n17 ) ( * Nl2CT1 lam2n19 ) ( * Nl2CT2 lam2n20 ) ( - 1 ( + ( + ( + ( + Nl2CT2 ( * Nl2arg12 0 ) ) ( * Nl2arg32 0 ) ) ( * Nl2arg42 0 ) ) ( * Nl2arg62 0 ) ) ) ) 0 ) ( = ( + ( * ( - 1 ) lam2n0 ) ( * ( - 1 ) lam2n8 ) ( * Nl2arg11 lam2n19 ) ( * Nl2arg12 lam2n20 ) ) 0 ) ( = ( + ( * ( - 1 ) lam2n16 ) ( * Nl2arg21 lam2n19 ) ( * Nl2arg22 lam2n20 ) ( - ( + 0 Nl2arg22 ) ) ) 0 ) ( = ( + ( * ( - 1 ) lam2n9 ) ( * ( - 1 ) lam2n16 ) ( * ( - 1 ) lam2n17 ) ( * 1 lam2n18 ) ( * Nl2arg31 lam2n19 ) ( * Nl2arg32 lam2n20 ) ) 0 ) ( = ( + ( * ( - 1 ) lam2n1 ) ( * ( - 1 ) lam2n2 ) ( * ( - 1 ) lam2n3 ) ( * ( - 1 ) lam2n10 ) ( * Nl2arg41 lam2n19 ) ( * Nl2arg42 lam2n20 ) ) 0 ) ( = ( + ( * ( - 1 ) lam2n11 ) ( * Nl2arg51 lam2n19 ) ( * Nl2arg52 lam2n20 ) ( - ( + 0 Nl2arg52 ) ) ) 0 ) ( = ( + ( * ( - 1 ) lam2n4 ) ( * ( - 1 ) lam2n5 ) ( * ( - 1 ) lam2n6 ) ( * ( - 1 ) lam2n12 ) ( * Nl2arg61 lam2n19 ) ( * Nl2arg62 lam2n20 ) ) 0 ) ( = ( + ( * ( - 1 ) lam2n7 ) ( * 1 lam2n8 ) ( * 1 lam2n10 ) ( * 1 lam2n12 ) ( * 1 lam2n17 ) ( - ( + 0 ( * Nl2arg12 1 ) ) ) ) 0 ) ( = ( + ( * 1 lam2n9 ) ( * ( - 1 ) lam2n13 ) ( - ( + 0 ( * Nl2arg32 1 ) ) ) ) 0 ) ( = ( + ( * 1 lam2n2 ) ( * 1 lam2n5 ) ( * ( - 1 ) lam2n14 ) ( - ( + 0 ( * Nl2arg42 1 ) ) ) ) 0 ) ( = ( + ( * 1 lam2n3 ) ( * 1 lam2n6 ) ( * ( - 1 ) lam2n15 ) ( - ( + 0 ( * Nl2arg62 1 ) ) ) ) 0 ) ( = ( * 1 lam2n11 ) 0 ) ) ))
(assert ( or ( and ( >= lam3n0 0 ) ( >= lam3n1 0 ) ( >= lam3n2 0 ) ( >= lam3n3 0 ) ( >= lam3n4 0 ) ( >= lam3n5 0 ) ( >= lam3n6 0 ) ( >= lam3n7 0 ) ( >= lam3n8 0 ) ( >= lam3n9 0 ) ( >= lam3n10 0 ) ( >= lam3n11 0 ) ( >= lam3n12 0 ) ( >= lam3n13 0 ) ( >= lam3n14 0 ) ( >= lam3n15 0 ) ( >= lam3n16 0 ) ( >= lam3n17 0 ) ( >= lam3n18 0 ) ( >= lam3n19 0 ) ( >= lam3n21 0 ) ( >= lam3n22 0 ) ( > ( + ( * 1 lam3n0 ) ( * 1 lam3n1 ) ( * 1 lam3n2 ) ( * 1 lam3n3 ) ( * 1 lam3n4 ) ( * 1 lam3n5 ) ( * 1 lam3n6 ) ( * 1 lam3n7 ) ( * 1 lam3n8 ) ( * ( - 1 ) lam3n16 ) ( * ( - 1 ) lam3n17 ) ( * 2 lam3n18 ) ( * 2 lam3n19 ) ( * Nl2CT1 lam3n21 ) ( * Nl2CT2 lam3n22 ) ( - 1 ) ) 0 ) ( = ( + ( * ( - 1 ) lam3n0 ) ( * ( - 1 ) lam3n9 ) ( * Nl2arg11 lam3n21 ) ( * Nl2arg12 lam3n22 ) ) 0 ) ( = ( + ( * ( - 1 ) lam3n16 ) ( * Nl2arg21 lam3n21 ) ( * Nl2arg22 lam3n22 ) ) 0 ) ( = ( + ( * ( - 1 ) lam3n10 ) ( * ( - 1 ) lam3n16 ) ( * ( - 1 ) lam3n17 ) ( * 1 lam3n20 ) ( * Nl2arg31 lam3n21 ) ( * Nl2arg32 lam3n22 ) ) 0 ) ( = ( + ( * ( - 1 ) lam3n1 ) ( * ( - 1 ) lam3n2 ) ( * ( - 1 ) lam3n3 ) ( * ( - 1 ) lam3n11 ) ( * ( - 1 ) lam3n18 ) ( * Nl2arg41 lam3n21 ) ( * Nl2arg42 lam3n22 ) ) 0 ) ( = ( + ( * 1 lam3n4 ) ( * Nl2arg51 lam3n21 ) ( * Nl2arg52 lam3n22 ) ) 0 ) ( = ( + ( * ( - 1 ) lam3n5 ) ( * ( - 1 ) lam3n6 ) ( * ( - 1 ) lam3n7 ) ( * ( - 1 ) lam3n12 ) ( * ( - 1 ) lam3n19 ) ( * Nl2arg61 lam3n21 ) ( * Nl2arg62 lam3n22 ) ) 0 ) ( = ( + ( * ( - 1 ) lam3n8 ) ( * 1 lam3n9 ) ( * 1 lam3n11 ) ( * 1 lam3n12 ) ( * 1 lam3n17 ) ) 0 ) ( = ( + ( * 1 lam3n10 ) ( * ( - 1 ) lam3n13 ) ) 0 ) ( = ( + ( * 1 lam3n2 ) ( * 1 lam3n6 ) ( * ( - 1 ) lam3n14 ) ) 0 ) ( = ( + ( * ( - 1 ) lam3n4 ) ( * 1 lam3n18 ) ( * 1 lam3n19 ) ) 0 ) ( = ( + ( * 1 lam3n3 ) ( * 1 lam3n7 ) ( * ( - 1 ) lam3n15 ) ) 0 ) ) ( and ( >= lam4n0 0 ) ( >= lam4n1 0 ) ( >= lam4n2 0 ) ( >= lam4n3 0 ) ( >= lam4n4 0 ) ( >= lam4n5 0 ) ( >= lam4n6 0 ) ( >= lam4n7 0 ) ( >= lam4n8 0 ) ( >= lam4n9 0 ) ( >= lam4n10 0 ) ( >= lam4n11 0 ) ( >= lam4n12 0 ) ( >= lam4n13 0 ) ( >= lam4n14 0 ) ( >= lam4n15 0 ) ( >= lam4n16 0 ) ( >= lam4n17 0 ) ( >= lam4n18 0 ) ( >= lam4n19 0 ) ( >= lam4n21 0 ) ( >= lam4n22 0 ) ( > ( + ( * 1 lam4n0 ) ( * 1 lam4n1 ) ( * 1 lam4n2 ) ( * 1 lam4n3 ) ( * 1 lam4n4 ) ( * 1 lam4n5 ) ( * 1 lam4n6 ) ( * 1 lam4n7 ) ( * 1 lam4n8 ) ( * ( - 1 ) lam4n16 ) ( * ( - 1 ) lam4n17 ) ( * 2 lam4n18 ) ( * 2 lam4n19 ) ( * Nl2CT1 lam4n21 ) ( * Nl2CT2 lam4n22 ) ( - 1 ( + ( + ( + ( + ( + Nl2CT1 ( * Nl2arg11 0 ) ) ( * Nl2arg31 0 ) ) ( * Nl2arg41 0 ) ) ( * Nl2arg51 0 ) ) ( * Nl2arg61 0 ) ) ) ) 0 ) ( = ( + ( * ( - 1 ) lam4n0 ) ( * ( - 1 ) lam4n9 ) ( * Nl2arg11 lam4n21 ) ( * Nl2arg12 lam4n22 ) ) 0 ) ( = ( + ( * ( - 1 ) lam4n16 ) ( * Nl2arg21 lam4n21 ) ( * Nl2arg22 lam4n22 ) ( - ( + 0 Nl2arg21 ) ) ) 0 ) ( = ( + ( * ( - 1 ) lam4n10 ) ( * ( - 1 ) lam4n16 ) ( * ( - 1 ) lam4n17 ) ( * 1 lam4n20 ) ( * Nl2arg31 lam4n21 ) ( * Nl2arg32 lam4n22 ) ) 0 ) ( = ( + ( * ( - 1 ) lam4n1 ) ( * ( - 1 ) lam4n2 ) ( * ( - 1 ) lam4n3 ) ( * ( - 1 ) lam4n11 ) ( * ( - 1 ) lam4n18 ) ( * Nl2arg41 lam4n21 ) ( * Nl2arg42 lam4n22 ) ) 0 ) ( = ( + ( * 1 lam4n4 ) ( * Nl2arg51 lam4n21 ) ( * Nl2arg52 lam4n22 ) ) 0 ) ( = ( + ( * ( - 1 ) lam4n5 ) ( * ( - 1 ) lam4n6 ) ( * ( - 1 ) lam4n7 ) ( * ( - 1 ) lam4n12 ) ( * ( - 1 ) lam4n19 ) ( * Nl2arg61 lam4n21 ) ( * Nl2arg62 lam4n22 ) ) 0 ) ( = ( + ( * ( - 1 ) lam4n8 ) ( * 1 lam4n9 ) ( * 1 lam4n11 ) ( * 1 lam4n12 ) ( * 1 lam4n17 ) ( - ( + 0 ( * Nl2arg11 1 ) ) ) ) 0 ) ( = ( + ( * 1 lam4n10 ) ( * ( - 1 ) lam4n13 ) ( - ( + 0 ( * Nl2arg31 1 ) ) ) ) 0 ) ( = ( + ( * 1 lam4n2 ) ( * 1 lam4n6 ) ( * ( - 1 ) lam4n14 ) ( - ( + 0 ( * Nl2arg41 1 ) ) ) ) 0 ) ( = ( + ( * ( - 1 ) lam4n4 ) ( * 1 lam4n18 ) ( * 1 lam4n19 ) ( - ( + 0 ( * Nl2arg51 1 ) ) ) ) 0 ) ( = ( + ( * 1 lam4n3 ) ( * 1 lam4n7 ) ( * ( - 1 ) lam4n15 ) ( - ( + 0 ( * Nl2arg61 1 ) ) ) ) 0 ) ) ))
(assert ( or ( and ( >= lam3n0 0 ) ( >= lam3n1 0 ) ( >= lam3n2 0 ) ( >= lam3n3 0 ) ( >= lam3n4 0 ) ( >= lam3n5 0 ) ( >= lam3n6 0 ) ( >= lam3n7 0 ) ( >= lam3n8 0 ) ( >= lam3n9 0 ) ( >= lam3n10 0 ) ( >= lam3n11 0 ) ( >= lam3n12 0 ) ( >= lam3n13 0 ) ( >= lam3n14 0 ) ( >= lam3n15 0 ) ( >= lam3n16 0 ) ( >= lam3n17 0 ) ( >= lam3n18 0 ) ( >= lam3n19 0 ) ( >= lam3n21 0 ) ( >= lam3n22 0 ) ( > ( + ( * 1 lam3n0 ) ( * 1 lam3n1 ) ( * 1 lam3n2 ) ( * 1 lam3n3 ) ( * 1 lam3n4 ) ( * 1 lam3n5 ) ( * 1 lam3n6 ) ( * 1 lam3n7 ) ( * 1 lam3n8 ) ( * ( - 1 ) lam3n16 ) ( * ( - 1 ) lam3n17 ) ( * 2 lam3n18 ) ( * 2 lam3n19 ) ( * Nl2CT1 lam3n21 ) ( * Nl2CT2 lam3n22 ) ( - 1 ) ) 0 ) ( = ( + ( * ( - 1 ) lam3n0 ) ( * ( - 1 ) lam3n9 ) ( * Nl2arg11 lam3n21 ) ( * Nl2arg12 lam3n22 ) ) 0 ) ( = ( + ( * ( - 1 ) lam3n16 ) ( * Nl2arg21 lam3n21 ) ( * Nl2arg22 lam3n22 ) ) 0 ) ( = ( + ( * ( - 1 ) lam3n10 ) ( * ( - 1 ) lam3n16 ) ( * ( - 1 ) lam3n17 ) ( * 1 lam3n20 ) ( * Nl2arg31 lam3n21 ) ( * Nl2arg32 lam3n22 ) ) 0 ) ( = ( + ( * ( - 1 ) lam3n1 ) ( * ( - 1 ) lam3n2 ) ( * ( - 1 ) lam3n3 ) ( * ( - 1 ) lam3n11 ) ( * ( - 1 ) lam3n18 ) ( * Nl2arg41 lam3n21 ) ( * Nl2arg42 lam3n22 ) ) 0 ) ( = ( + ( * 1 lam3n4 ) ( * Nl2arg51 lam3n21 ) ( * Nl2arg52 lam3n22 ) ) 0 ) ( = ( + ( * ( - 1 ) lam3n5 ) ( * ( - 1 ) lam3n6 ) ( * ( - 1 ) lam3n7 ) ( * ( - 1 ) lam3n12 ) ( * ( - 1 ) lam3n19 ) ( * Nl2arg61 lam3n21 ) ( * Nl2arg62 lam3n22 ) ) 0 ) ( = ( + ( * ( - 1 ) lam3n8 ) ( * 1 lam3n9 ) ( * 1 lam3n11 ) ( * 1 lam3n12 ) ( * 1 lam3n17 ) ) 0 ) ( = ( + ( * 1 lam3n10 ) ( * ( - 1 ) lam3n13 ) ) 0 ) ( = ( + ( * 1 lam3n2 ) ( * 1 lam3n6 ) ( * ( - 1 ) lam3n14 ) ) 0 ) ( = ( + ( * ( - 1 ) lam3n4 ) ( * 1 lam3n18 ) ( * 1 lam3n19 ) ) 0 ) ( = ( + ( * 1 lam3n3 ) ( * 1 lam3n7 ) ( * ( - 1 ) lam3n15 ) ) 0 ) ) ( and ( >= lam5n0 0 ) ( >= lam5n1 0 ) ( >= lam5n2 0 ) ( >= lam5n3 0 ) ( >= lam5n4 0 ) ( >= lam5n5 0 ) ( >= lam5n6 0 ) ( >= lam5n7 0 ) ( >= lam5n8 0 ) ( >= lam5n9 0 ) ( >= lam5n10 0 ) ( >= lam5n11 0 ) ( >= lam5n12 0 ) ( >= lam5n13 0 ) ( >= lam5n14 0 ) ( >= lam5n15 0 ) ( >= lam5n16 0 ) ( >= lam5n17 0 ) ( >= lam5n18 0 ) ( >= lam5n19 0 ) ( >= lam5n21 0 ) ( >= lam5n22 0 ) ( > ( + ( * 1 lam5n0 ) ( * 1 lam5n1 ) ( * 1 lam5n2 ) ( * 1 lam5n3 ) ( * 1 lam5n4 ) ( * 1 lam5n5 ) ( * 1 lam5n6 ) ( * 1 lam5n7 ) ( * 1 lam5n8 ) ( * ( - 1 ) lam5n16 ) ( * ( - 1 ) lam5n17 ) ( * 2 lam5n18 ) ( * 2 lam5n19 ) ( * Nl2CT1 lam5n21 ) ( * Nl2CT2 lam5n22 ) ( - 1 ( + ( + ( + ( + ( + Nl2CT2 ( * Nl2arg12 0 ) ) ( * Nl2arg32 0 ) ) ( * Nl2arg42 0 ) ) ( * Nl2arg52 0 ) ) ( * Nl2arg62 0 ) ) ) ) 0 ) ( = ( + ( * ( - 1 ) lam5n0 ) ( * ( - 1 ) lam5n9 ) ( * Nl2arg11 lam5n21 ) ( * Nl2arg12 lam5n22 ) ) 0 ) ( = ( + ( * ( - 1 ) lam5n16 ) ( * Nl2arg21 lam5n21 ) ( * Nl2arg22 lam5n22 ) ( - ( + 0 Nl2arg22 ) ) ) 0 ) ( = ( + ( * ( - 1 ) lam5n10 ) ( * ( - 1 ) lam5n16 ) ( * ( - 1 ) lam5n17 ) ( * 1 lam5n20 ) ( * Nl2arg31 lam5n21 ) ( * Nl2arg32 lam5n22 ) ) 0 ) ( = ( + ( * ( - 1 ) lam5n1 ) ( * ( - 1 ) lam5n2 ) ( * ( - 1 ) lam5n3 ) ( * ( - 1 ) lam5n11 ) ( * ( - 1 ) lam5n18 ) ( * Nl2arg41 lam5n21 ) ( * Nl2arg42 lam5n22 ) ) 0 ) ( = ( + ( * 1 lam5n4 ) ( * Nl2arg51 lam5n21 ) ( * Nl2arg52 lam5n22 ) ) 0 ) ( = ( + ( * ( - 1 ) lam5n5 ) ( * ( - 1 ) lam5n6 ) ( * ( - 1 ) lam5n7 ) ( * ( - 1 ) lam5n12 ) ( * ( - 1 ) lam5n19 ) ( * Nl2arg61 lam5n21 ) ( * Nl2arg62 lam5n22 ) ) 0 ) ( = ( + ( * ( - 1 ) lam5n8 ) ( * 1 lam5n9 ) ( * 1 lam5n11 ) ( * 1 lam5n12 ) ( * 1 lam5n17 ) ( - ( + 0 ( * Nl2arg12 1 ) ) ) ) 0 ) ( = ( + ( * 1 lam5n10 ) ( * ( - 1 ) lam5n13 ) ( - ( + 0 ( * Nl2arg32 1 ) ) ) ) 0 ) ( = ( + ( * 1 lam5n2 ) ( * 1 lam5n6 ) ( * ( - 1 ) lam5n14 ) ( - ( + 0 ( * Nl2arg42 1 ) ) ) ) 0 ) ( = ( + ( * ( - 1 ) lam5n4 ) ( * 1 lam5n18 ) ( * 1 lam5n19 ) ( - ( + 0 ( * Nl2arg52 1 ) ) ) ) 0 ) ( = ( + ( * 1 lam5n3 ) ( * 1 lam5n7 ) ( * ( - 1 ) lam5n15 ) ( - ( + 0 ( * Nl2arg62 1 ) ) ) ) 0 ) ) ))
(assert ( or ( and ( >= lam6n0 0 ) ( >= lam6n1 0 ) ( >= lam6n2 0 ) ( >= lam6n3 0 ) ( >= lam6n4 0 ) ( >= lam6n5 0 ) ( >= lam6n6 0 ) ( >= lam6n7 0 ) ( >= lam6n8 0 ) ( >= lam6n9 0 ) ( >= lam6n10 0 ) ( >= lam6n11 0 ) ( >= lam6n12 0 ) ( >= lam6n13 0 ) ( >= lam6n14 0 ) ( >= lam6n15 0 ) ( >= lam6n16 0 ) ( >= lam6n17 0 ) ( >= lam6n19 0 ) ( >= lam6n20 0 ) ( > ( + ( * 1 lam6n0 ) ( * 1 lam6n1 ) ( * 1 lam6n2 ) ( * 1 lam6n3 ) ( * ( - 1 ) lam6n14 ) ( * ( - 1 ) lam6n15 ) ( * ( - 1 ) lam6n16 ) ( * ( - 1 ) lam6n17 ) ( * Nl2CT1 lam6n19 ) ( * Nl2CT2 lam6n20 ) ( - 1 ) ) 0 ) ( = ( + ( * ( - 1 ) lam6n0 ) ( * ( - 1 ) lam6n4 ) ( * Nl2arg11 lam6n19 ) ( * Nl2arg12 lam6n20 ) ) 0 ) ( = ( + ( * 1 lam6n5 ) ( * ( - 1 ) lam6n14 ) ( * Nl2arg21 lam6n19 ) ( * Nl2arg22 lam6n20 ) ) 0 ) ( = ( + ( * ( - 1 ) lam6n6 ) ( * ( - 1 ) lam6n7 ) ( * ( - 1 ) lam6n8 ) ( * ( - 1 ) lam6n14 ) ( * ( - 1 ) lam6n15 ) ( * 1 lam6n18 ) ( * Nl2arg31 lam6n19 ) ( * Nl2arg32 lam6n20 ) ) 0 ) ( = ( + ( * ( - 1 ) lam6n9 ) ( * ( - 1 ) lam6n16 ) ( * Nl2arg41 lam6n19 ) ( * Nl2arg42 lam6n20 ) ) 0 ) ( = ( + ( * ( - 1 ) lam6n5 ) ( * Nl2arg51 lam6n19 ) ( * Nl2arg52 lam6n20 ) ) 0 ) ( = ( + ( * ( - 1 ) lam6n10 ) ( * ( - 1 ) lam6n17 ) ( * Nl2arg61 lam6n19 ) ( * Nl2arg62 lam6n20 ) ) 0 ) ( = ( + ( * ( - 1 ) lam6n1 ) ( * 1 lam6n4 ) ( * 1 lam6n15 ) ( * 1 lam6n16 ) ( * 1 lam6n17 ) ) 0 ) ( = ( + ( * 1 lam6n6 ) ( * ( - 1 ) lam6n11 ) ) 0 ) ( = ( + ( * 1 lam6n7 ) ( * ( - 1 ) lam6n12 ) ) 0 ) ( = ( + ( * 1 lam6n8 ) ( * ( - 1 ) lam6n13 ) ) 0 ) ( = ( * ( - 1 ) lam6n2 ) 0 ) ( = ( * ( - 1 ) lam6n3 ) 0 ) ) ( and ( >= lam7n0 0 ) ( >= lam7n1 0 ) ( >= lam7n2 0 ) ( >= lam7n3 0 ) ( >= lam7n4 0 ) ( >= lam7n5 0 ) ( >= lam7n6 0 ) ( >= lam7n7 0 ) ( >= lam7n8 0 ) ( >= lam7n9 0 ) ( >= lam7n10 0 ) ( >= lam7n11 0 ) ( >= lam7n12 0 ) ( >= lam7n13 0 ) ( >= lam7n14 0 ) ( >= lam7n15 0 ) ( >= lam7n16 0 ) ( >= lam7n17 0 ) ( >= lam7n19 0 ) ( >= lam7n20 0 ) ( > ( + ( * 1 lam7n0 ) ( * 1 lam7n1 ) ( * 1 lam7n2 ) ( * 1 lam7n3 ) ( * ( - 1 ) lam7n14 ) ( * ( - 1 ) lam7n15 ) ( * ( - 1 ) lam7n16 ) ( * ( - 1 ) lam7n17 ) ( * Nl2CT1 lam7n19 ) ( * Nl2CT2 lam7n20 ) ( - 1 ( + ( + ( + ( + ( + ( + Nl2CT1 ( * Nl2arg11 0 ) ) ( * Nl2arg21 1 ) ) ( * Nl2arg31 0 ) ) ( * Nl2arg41 0 ) ) ( * Nl2arg51 0 ) ) ( * Nl2arg61 0 ) ) ) ) 0 ) ( = ( + ( * ( - 1 ) lam7n0 ) ( * ( - 1 ) lam7n4 ) ( * Nl2arg11 lam7n19 ) ( * Nl2arg12 lam7n20 ) ) 0 ) ( = ( + ( * 1 lam7n5 ) ( * ( - 1 ) lam7n14 ) ( * Nl2arg21 lam7n19 ) ( * Nl2arg22 lam7n20 ) ( - ( + 0 ( * Nl2arg21 1 ) ) ) ) 0 ) ( = ( + ( * ( - 1 ) lam7n6 ) ( * ( - 1 ) lam7n7 ) ( * ( - 1 ) lam7n8 ) ( * ( - 1 ) lam7n14 ) ( * ( - 1 ) lam7n15 ) ( * 1 lam7n18 ) ( * Nl2arg31 lam7n19 ) ( * Nl2arg32 lam7n20 ) ) 0 ) ( = ( + ( * ( - 1 ) lam7n9 ) ( * ( - 1 ) lam7n16 ) ( * Nl2arg41 lam7n19 ) ( * Nl2arg42 lam7n20 ) ) 0 ) ( = ( + ( * ( - 1 ) lam7n5 ) ( * Nl2arg51 lam7n19 ) ( * Nl2arg52 lam7n20 ) ) 0 ) ( = ( + ( * ( - 1 ) lam7n10 ) ( * ( - 1 ) lam7n17 ) ( * Nl2arg61 lam7n19 ) ( * Nl2arg62 lam7n20 ) ) 0 ) ( = ( + ( * ( - 1 ) lam7n1 ) ( * 1 lam7n4 ) ( * 1 lam7n15 ) ( * 1 lam7n16 ) ( * 1 lam7n17 ) ( - ( + 0 ( * Nl2arg11 1 ) ) ) ) 0 ) ( = ( + ( * 1 lam7n6 ) ( * ( - 1 ) lam7n11 ) ( - ( + 0 ( * Nl2arg31 1 ) ) ) ) 0 ) ( = ( + ( * 1 lam7n7 ) ( * ( - 1 ) lam7n12 ) ( - ( + 0 ( * Nl2arg41 1 ) ) ) ) 0 ) ( = ( + ( * 1 lam7n8 ) ( * ( - 1 ) lam7n13 ) ( - ( + 0 ( * Nl2arg61 1 ) ) ) ) 0 ) ( = ( * ( - 1 ) lam7n2 ) 0 ) ( = ( * ( - 1 ) lam7n3 ) 0 ) ) ))
(assert ( or ( and ( >= lam6n0 0 ) ( >= lam6n1 0 ) ( >= lam6n2 0 ) ( >= lam6n3 0 ) ( >= lam6n4 0 ) ( >= lam6n5 0 ) ( >= lam6n6 0 ) ( >= lam6n7 0 ) ( >= lam6n8 0 ) ( >= lam6n9 0 ) ( >= lam6n10 0 ) ( >= lam6n11 0 ) ( >= lam6n12 0 ) ( >= lam6n13 0 ) ( >= lam6n14 0 ) ( >= lam6n15 0 ) ( >= lam6n16 0 ) ( >= lam6n17 0 ) ( >= lam6n19 0 ) ( >= lam6n20 0 ) ( > ( + ( * 1 lam6n0 ) ( * 1 lam6n1 ) ( * 1 lam6n2 ) ( * 1 lam6n3 ) ( * ( - 1 ) lam6n14 ) ( * ( - 1 ) lam6n15 ) ( * ( - 1 ) lam6n16 ) ( * ( - 1 ) lam6n17 ) ( * Nl2CT1 lam6n19 ) ( * Nl2CT2 lam6n20 ) ( - 1 ) ) 0 ) ( = ( + ( * ( - 1 ) lam6n0 ) ( * ( - 1 ) lam6n4 ) ( * Nl2arg11 lam6n19 ) ( * Nl2arg12 lam6n20 ) ) 0 ) ( = ( + ( * 1 lam6n5 ) ( * ( - 1 ) lam6n14 ) ( * Nl2arg21 lam6n19 ) ( * Nl2arg22 lam6n20 ) ) 0 ) ( = ( + ( * ( - 1 ) lam6n6 ) ( * ( - 1 ) lam6n7 ) ( * ( - 1 ) lam6n8 ) ( * ( - 1 ) lam6n14 ) ( * ( - 1 ) lam6n15 ) ( * 1 lam6n18 ) ( * Nl2arg31 lam6n19 ) ( * Nl2arg32 lam6n20 ) ) 0 ) ( = ( + ( * ( - 1 ) lam6n9 ) ( * ( - 1 ) lam6n16 ) ( * Nl2arg41 lam6n19 ) ( * Nl2arg42 lam6n20 ) ) 0 ) ( = ( + ( * ( - 1 ) lam6n5 ) ( * Nl2arg51 lam6n19 ) ( * Nl2arg52 lam6n20 ) ) 0 ) ( = ( + ( * ( - 1 ) lam6n10 ) ( * ( - 1 ) lam6n17 ) ( * Nl2arg61 lam6n19 ) ( * Nl2arg62 lam6n20 ) ) 0 ) ( = ( + ( * ( - 1 ) lam6n1 ) ( * 1 lam6n4 ) ( * 1 lam6n15 ) ( * 1 lam6n16 ) ( * 1 lam6n17 ) ) 0 ) ( = ( + ( * 1 lam6n6 ) ( * ( - 1 ) lam6n11 ) ) 0 ) ( = ( + ( * 1 lam6n7 ) ( * ( - 1 ) lam6n12 ) ) 0 ) ( = ( + ( * 1 lam6n8 ) ( * ( - 1 ) lam6n13 ) ) 0 ) ( = ( * ( - 1 ) lam6n2 ) 0 ) ( = ( * ( - 1 ) lam6n3 ) 0 ) ) ( and ( >= lam8n0 0 ) ( >= lam8n1 0 ) ( >= lam8n2 0 ) ( >= lam8n3 0 ) ( >= lam8n4 0 ) ( >= lam8n5 0 ) ( >= lam8n6 0 ) ( >= lam8n7 0 ) ( >= lam8n8 0 ) ( >= lam8n9 0 ) ( >= lam8n10 0 ) ( >= lam8n11 0 ) ( >= lam8n12 0 ) ( >= lam8n13 0 ) ( >= lam8n14 0 ) ( >= lam8n15 0 ) ( >= lam8n16 0 ) ( >= lam8n17 0 ) ( >= lam8n19 0 ) ( >= lam8n20 0 ) ( > ( + ( * 1 lam8n0 ) ( * 1 lam8n1 ) ( * 1 lam8n2 ) ( * 1 lam8n3 ) ( * ( - 1 ) lam8n14 ) ( * ( - 1 ) lam8n15 ) ( * ( - 1 ) lam8n16 ) ( * ( - 1 ) lam8n17 ) ( * Nl2CT1 lam8n19 ) ( * Nl2CT2 lam8n20 ) ( - 1 ( + ( + ( + ( + ( + ( + Nl2CT2 ( * Nl2arg12 0 ) ) ( * Nl2arg22 1 ) ) ( * Nl2arg32 0 ) ) ( * Nl2arg42 0 ) ) ( * Nl2arg52 0 ) ) ( * Nl2arg62 0 ) ) ) ) 0 ) ( = ( + ( * ( - 1 ) lam8n0 ) ( * ( - 1 ) lam8n4 ) ( * Nl2arg11 lam8n19 ) ( * Nl2arg12 lam8n20 ) ) 0 ) ( = ( + ( * 1 lam8n5 ) ( * ( - 1 ) lam8n14 ) ( * Nl2arg21 lam8n19 ) ( * Nl2arg22 lam8n20 ) ( - ( + 0 ( * Nl2arg22 1 ) ) ) ) 0 ) ( = ( + ( * ( - 1 ) lam8n6 ) ( * ( - 1 ) lam8n7 ) ( * ( - 1 ) lam8n8 ) ( * ( - 1 ) lam8n14 ) ( * ( - 1 ) lam8n15 ) ( * 1 lam8n18 ) ( * Nl2arg31 lam8n19 ) ( * Nl2arg32 lam8n20 ) ) 0 ) ( = ( + ( * ( - 1 ) lam8n9 ) ( * ( - 1 ) lam8n16 ) ( * Nl2arg41 lam8n19 ) ( * Nl2arg42 lam8n20 ) ) 0 ) ( = ( + ( * ( - 1 ) lam8n5 ) ( * Nl2arg51 lam8n19 ) ( * Nl2arg52 lam8n20 ) ) 0 ) ( = ( + ( * ( - 1 ) lam8n10 ) ( * ( - 1 ) lam8n17 ) ( * Nl2arg61 lam8n19 ) ( * Nl2arg62 lam8n20 ) ) 0 ) ( = ( + ( * ( - 1 ) lam8n1 ) ( * 1 lam8n4 ) ( * 1 lam8n15 ) ( * 1 lam8n16 ) ( * 1 lam8n17 ) ( - ( + 0 ( * Nl2arg12 1 ) ) ) ) 0 ) ( = ( + ( * 1 lam8n6 ) ( * ( - 1 ) lam8n11 ) ( - ( + 0 ( * Nl2arg32 1 ) ) ) ) 0 ) ( = ( + ( * 1 lam8n7 ) ( * ( - 1 ) lam8n12 ) ( - ( + 0 ( * Nl2arg42 1 ) ) ) ) 0 ) ( = ( + ( * 1 lam8n8 ) ( * ( - 1 ) lam8n13 ) ( - ( + 0 ( * Nl2arg62 1 ) ) ) ) 0 ) ( = ( * ( - 1 ) lam8n2 ) 0 ) ( = ( * ( - 1 ) lam8n3 ) 0 ) ) ))
(assert ( and ( <= ( + 1 ( * ( - 1 ) undef7 ) ) 0 ) ( <= ( + 1 ( * ( - 1 ) undef68 ) ) 0 ) ( <= ( + undef7 ( * ( - 1 ) undef68 ) ) 0 ) ( <= ( * ( - 1 ) undef9 ) 0 ) ( <= ( * ( - 1 ) undef10 ) 0 ) ( <= ( * ( - 1 ) undef12 ) 0 ) ( <= ( + ( + ( + ( + ( + ( + ( + Nl2CT1 ( * Nl2arg11 0 ) ) ( * Nl2arg21 0 ) ) ( * Nl2arg31 0 ) ) ( * Nl2arg41 0 ) ) ( * Nl2arg51 0 ) ) ( * Nl2arg61 0 ) ) ( * ( + 0 ( * Nl2arg11 1 ) ) undef7 ) ( * ( + 0 ( * Nl2arg31 1 ) ) undef9 ) ( * ( + 0 ( * Nl2arg41 1 ) ) undef10 ) ( * ( + 0 ( * Nl2arg61 1 ) ) undef12 ) ) 0 ) ( <= ( + ( + ( + ( + ( + ( + ( + Nl2CT2 ( * Nl2arg12 0 ) ) ( * Nl2arg22 0 ) ) ( * Nl2arg32 0 ) ) ( * Nl2arg42 0 ) ) ( * Nl2arg52 0 ) ) ( * Nl2arg62 0 ) ) ( * ( + 0 ( * Nl2arg12 1 ) ) undef7 ) ( * ( + 0 ( * Nl2arg32 1 ) ) undef9 ) ( * ( + 0 ( * Nl2arg42 1 ) ) undef10 ) ( * ( + 0 ( * Nl2arg62 1 ) ) undef12 ) ) 0 ) ( <= ( + 1 ( * ( - 1 ) undef7 ) ) 0 ) ( <= undef9 0 ) ( <= ( + ( - 1 ) ( * ( - 1 ) undef9 ) ) 0 ) ))
(assert ( or ( and ( and ( >= lam14n0 0 ) ( >= lam14n1 0 ) ( >= lam14n2 0 ) ( >= lam14n3 0 ) ( >= lam14n4 0 ) ( >= lam14n5 0 ) ( >= lam14n6 0 ) ( >= lam14n7 0 ) ( >= lam14n8 0 ) ( >= lam14n9 0 ) ( >= lam14n10 0 ) ( >= lam14n11 0 ) ( >= lam14n12 0 ) ( >= lam14n13 0 ) ( >= lam14n14 0 ) ( >= lam14n15 0 ) ( >= lam14n16 0 ) ( >= lam14n17 0 ) ( >= lam14n19 0 ) ( >= lam14n20 0 ) ( > ( + ( * 1 lam14n0 ) ( * 1 lam14n1 ) ( * 1 lam14n2 ) ( * 1 lam14n3 ) ( * ( - 1 ) lam14n14 ) ( * ( - 1 ) lam14n15 ) ( * ( - 1 ) lam14n16 ) ( * ( - 1 ) lam14n17 ) ( * Nl2CT1 lam14n19 ) ( * Nl2CT2 lam14n20 ) ( - 1 ( - ( + ( + ( + ( + ( + ( + RFN1_CT ( * RFN1_arg1 0 ) ) ( * RFN1_arg2 1 ) ) ( * RFN1_arg3 0 ) ) ( * RFN1_arg4 0 ) ) ( * RFN1_arg5 0 ) ) ( * RFN1_arg6 0 ) ) RFN1_CT ) ) ) 0 ) ( = ( + ( * ( - 1 ) lam14n0 ) ( * ( - 1 ) lam14n4 ) ( * Nl2arg11 lam14n19 ) ( * Nl2arg12 lam14n20 ) ( - ( - RFN1_arg1 ) ) ) 0 ) ( = ( + ( * 1 lam14n5 ) ( * ( - 1 ) lam14n14 ) ( * Nl2arg21 lam14n19 ) ( * Nl2arg22 lam14n20 ) ( - ( - ( + 0 ( * RFN1_arg2 1 ) ) RFN1_arg2 ) ) ) 0 ) ( = ( + ( * ( - 1 ) lam14n6 ) ( * ( - 1 ) lam14n7 ) ( * ( - 1 ) lam14n8 ) ( * ( - 1 ) lam14n14 ) ( * ( - 1 ) lam14n15 ) ( * 1 lam14n18 ) ( * Nl2arg31 lam14n19 ) ( * Nl2arg32 lam14n20 ) ( - ( - RFN1_arg3 ) ) ) 0 ) ( = ( + ( * ( - 1 ) lam14n9 ) ( * ( - 1 ) lam14n16 ) ( * Nl2arg41 lam14n19 ) ( * Nl2arg42 lam14n20 ) ( - ( - RFN1_arg4 ) ) ) 0 ) ( = ( + ( * ( - 1 ) lam14n5 ) ( * Nl2arg51 lam14n19 ) ( * Nl2arg52 lam14n20 ) ( - ( - RFN1_arg5 ) ) ) 0 ) ( = ( + ( * ( - 1 ) lam14n10 ) ( * ( - 1 ) lam14n17 ) ( * Nl2arg61 lam14n19 ) ( * Nl2arg62 lam14n20 ) ( - ( - RFN1_arg6 ) ) ) 0 ) ( = ( + ( * ( - 1 ) lam14n1 ) ( * 1 lam14n4 ) ( * 1 lam14n15 ) ( * 1 lam14n16 ) ( * 1 lam14n17 ) ( - ( + 0 ( * RFN1_arg1 1 ) ) ) ) 0 ) ( = ( + ( * 1 lam14n6 ) ( * ( - 1 ) lam14n11 ) ( - ( + 0 ( * RFN1_arg3 1 ) ) ) ) 0 ) ( = ( + ( * 1 lam14n7 ) ( * ( - 1 ) lam14n12 ) ( - ( + 0 ( * RFN1_arg4 1 ) ) ) ) 0 ) ( = ( + ( * 1 lam14n8 ) ( * ( - 1 ) lam14n13 ) ( - ( + 0 ( * RFN1_arg6 1 ) ) ) ) 0 ) ( = ( * ( - 1 ) lam14n2 ) 0 ) ( = ( * ( - 1 ) lam14n3 ) 0 ) ) ( and ( and ( >= lam12n0 0 ) ( >= lam12n1 0 ) ( >= lam12n2 0 ) ( >= lam12n3 0 ) ( >= lam12n4 0 ) ( >= lam12n5 0 ) ( >= lam12n6 0 ) ( >= lam12n7 0 ) ( >= lam12n8 0 ) ( >= lam12n9 0 ) ( >= lam12n10 0 ) ( >= lam12n11 0 ) ( >= lam12n12 0 ) ( >= lam12n13 0 ) ( >= lam12n14 0 ) ( >= lam12n15 0 ) ( >= lam12n16 0 ) ( >= lam12n17 0 ) ( >= lam12n19 0 ) ( >= lam12n20 0 ) ( > ( + ( * 1 lam12n0 ) ( * 1 lam12n1 ) ( * 1 lam12n2 ) ( * 1 lam12n3 ) ( * ( - 1 ) lam12n14 ) ( * ( - 1 ) lam12n15 ) ( * ( - 1 ) lam12n16 ) ( * ( - 1 ) lam12n17 ) ( * Nl2CT1 lam12n19 ) ( * Nl2CT2 lam12n20 ) ( - 1 ( - RFN1_CT ) ) ) 0 ) ( = ( + ( * ( - 1 ) lam12n0 ) ( * ( - 1 ) lam12n4 ) ( * Nl2arg11 lam12n19 ) ( * Nl2arg12 lam12n20 ) ( - ( - RFN1_arg1 ) ) ) 0 ) ( = ( + ( * 1 lam12n5 ) ( * ( - 1 ) lam12n14 ) ( * Nl2arg21 lam12n19 ) ( * Nl2arg22 lam12n20 ) ( - ( - RFN1_arg2 ) ) ) 0 ) ( = ( + ( * ( - 1 ) lam12n6 ) ( * ( - 1 ) lam12n7 ) ( * ( - 1 ) lam12n8 ) ( * ( - 1 ) lam12n14 ) ( * ( - 1 ) lam12n15 ) ( * 1 lam12n18 ) ( * Nl2arg31 lam12n19 ) ( * Nl2arg32 lam12n20 ) ( - ( - RFN1_arg3 ) ) ) 0 ) ( = ( + ( * ( - 1 ) lam12n9 ) ( * ( - 1 ) lam12n16 ) ( * Nl2arg41 lam12n19 ) ( * Nl2arg42 lam12n20 ) ( - ( - RFN1_arg4 ) ) ) 0 ) ( = ( + ( * ( - 1 ) lam12n5 ) ( * Nl2arg51 lam12n19 ) ( * Nl2arg52 lam12n20 ) ( - ( - RFN1_arg5 ) ) ) 0 ) ( = ( + ( * ( - 1 ) lam12n10 ) ( * ( - 1 ) lam12n17 ) ( * Nl2arg61 lam12n19 ) ( * Nl2arg62 lam12n20 ) ( - ( - RFN1_arg6 ) ) ) 0 ) ( = ( + ( * ( - 1 ) lam12n1 ) ( * 1 lam12n4 ) ( * 1 lam12n15 ) ( * 1 lam12n16 ) ( * 1 lam12n17 ) ) 0 ) ( = ( + ( * 1 lam12n6 ) ( * ( - 1 ) lam12n11 ) ) 0 ) ( = ( + ( * 1 lam12n7 ) ( * ( - 1 ) lam12n12 ) ) 0 ) ( = ( + ( * 1 lam12n8 ) ( * ( - 1 ) lam12n13 ) ) 0 ) ( = ( * ( - 1 ) lam12n2 ) 0 ) ( = ( * ( - 1 ) lam12n3 ) 0 ) ) ( and ( >= lam13n0 0 ) ( >= lam13n1 0 ) ( >= lam13n2 0 ) ( >= lam13n3 0 ) ( >= lam13n4 0 ) ( >= lam13n5 0 ) ( >= lam13n6 0 ) ( >= lam13n7 0 ) ( >= lam13n8 0 ) ( >= lam13n9 0 ) ( >= lam13n10 0 ) ( >= lam13n11 0 ) ( >= lam13n12 0 ) ( >= lam13n13 0 ) ( >= lam13n14 0 ) ( >= lam13n15 0 ) ( >= lam13n16 0 ) ( >= lam13n17 0 ) ( >= lam13n19 0 ) ( >= lam13n20 0 ) ( > ( + ( * 1 lam13n0 ) ( * 1 lam13n1 ) ( * 1 lam13n2 ) ( * 1 lam13n3 ) ( * ( - 1 ) lam13n14 ) ( * ( - 1 ) lam13n15 ) ( * ( - 1 ) lam13n16 ) ( * ( - 1 ) lam13n17 ) ( * Nl2CT1 lam13n19 ) ( * Nl2CT2 lam13n20 ) ( - 1 ( + ( - ( + ( + ( + ( + ( + ( + RFN1_CT ( * RFN1_arg1 0 ) ) ( * RFN1_arg2 1 ) ) ( * RFN1_arg3 0 ) ) ( * RFN1_arg4 0 ) ) ( * RFN1_arg5 0 ) ) ( * RFN1_arg6 0 ) ) RFN1_CT ) 1 ) ) ) 0 ) ( = ( + ( * ( - 1 ) lam13n0 ) ( * ( - 1 ) lam13n4 ) ( * Nl2arg11 lam13n19 ) ( * Nl2arg12 lam13n20 ) ( - ( - RFN1_arg1 ) ) ) 0 ) ( = ( + ( * 1 lam13n5 ) ( * ( - 1 ) lam13n14 ) ( * Nl2arg21 lam13n19 ) ( * Nl2arg22 lam13n20 ) ( - ( - ( + 0 ( * RFN1_arg2 1 ) ) RFN1_arg2 ) ) ) 0 ) ( = ( + ( * ( - 1 ) lam13n6 ) ( * ( - 1 ) lam13n7 ) ( * ( - 1 ) lam13n8 ) ( * ( - 1 ) lam13n14 ) ( * ( - 1 ) lam13n15 ) ( * 1 lam13n18 ) ( * Nl2arg31 lam13n19 ) ( * Nl2arg32 lam13n20 ) ( - ( - RFN1_arg3 ) ) ) 0 ) ( = ( + ( * ( - 1 ) lam13n9 ) ( * ( - 1 ) lam13n16 ) ( * Nl2arg41 lam13n19 ) ( * Nl2arg42 lam13n20 ) ( - ( - RFN1_arg4 ) ) ) 0 ) ( = ( + ( * ( - 1 ) lam13n5 ) ( * Nl2arg51 lam13n19 ) ( * Nl2arg52 lam13n20 ) ( - ( - RFN1_arg5 ) ) ) 0 ) ( = ( + ( * ( - 1 ) lam13n10 ) ( * ( - 1 ) lam13n17 ) ( * Nl2arg61 lam13n19 ) ( * Nl2arg62 lam13n20 ) ( - ( - RFN1_arg6 ) ) ) 0 ) ( = ( + ( * ( - 1 ) lam13n1 ) ( * 1 lam13n4 ) ( * 1 lam13n15 ) ( * 1 lam13n16 ) ( * 1 lam13n17 ) ( - ( + 0 ( * RFN1_arg1 1 ) ) ) ) 0 ) ( = ( + ( * 1 lam13n6 ) ( * ( - 1 ) lam13n11 ) ( - ( + 0 ( * RFN1_arg3 1 ) ) ) ) 0 ) ( = ( + ( * 1 lam13n7 ) ( * ( - 1 ) lam13n12 ) ( - ( + 0 ( * RFN1_arg4 1 ) ) ) ) 0 ) ( = ( + ( * 1 lam13n8 ) ( * ( - 1 ) lam13n13 ) ( - ( + 0 ( * RFN1_arg6 1 ) ) ) ) 0 ) ( = ( * ( - 1 ) lam13n2 ) 0 ) ( = ( * ( - 1 ) lam13n3 ) 0 ) ) ) ) ( and ( >= lam11n0 0 ) ( >= lam11n1 0 ) ( >= lam11n2 0 ) ( >= lam11n3 0 ) ( >= lam11n4 0 ) ( >= lam11n5 0 ) ( >= lam11n6 0 ) ( >= lam11n7 0 ) ( >= lam11n8 0 ) ( >= lam11n9 0 ) ( >= lam11n10 0 ) ( >= lam11n11 0 ) ( >= lam11n12 0 ) ( >= lam11n13 0 ) ( >= lam11n14 0 ) ( >= lam11n15 0 ) ( >= lam11n16 0 ) ( >= lam11n17 0 ) ( >= lam11n19 0 ) ( >= lam11n20 0 ) ( > ( + ( * 1 lam11n0 ) ( * 1 lam11n1 ) ( * 1 lam11n2 ) ( * 1 lam11n3 ) ( * ( - 1 ) lam11n14 ) ( * ( - 1 ) lam11n15 ) ( * ( - 1 ) lam11n16 ) ( * ( - 1 ) lam11n17 ) ( * Nl2CT1 lam11n19 ) ( * Nl2CT2 lam11n20 ) ( - 1 ) ) 0 ) ( = ( + ( * ( - 1 ) lam11n0 ) ( * ( - 1 ) lam11n4 ) ( * Nl2arg11 lam11n19 ) ( * Nl2arg12 lam11n20 ) ) 0 ) ( = ( + ( * 1 lam11n5 ) ( * ( - 1 ) lam11n14 ) ( * Nl2arg21 lam11n19 ) ( * Nl2arg22 lam11n20 ) ) 0 ) ( = ( + ( * ( - 1 ) lam11n6 ) ( * ( - 1 ) lam11n7 ) ( * ( - 1 ) lam11n8 ) ( * ( - 1 ) lam11n14 ) ( * ( - 1 ) lam11n15 ) ( * 1 lam11n18 ) ( * Nl2arg31 lam11n19 ) ( * Nl2arg32 lam11n20 ) ) 0 ) ( = ( + ( * ( - 1 ) lam11n9 ) ( * ( - 1 ) lam11n16 ) ( * Nl2arg41 lam11n19 ) ( * Nl2arg42 lam11n20 ) ) 0 ) ( = ( + ( * ( - 1 ) lam11n5 ) ( * Nl2arg51 lam11n19 ) ( * Nl2arg52 lam11n20 ) ) 0 ) ( = ( + ( * ( - 1 ) lam11n10 ) ( * ( - 1 ) lam11n17 ) ( * Nl2arg61 lam11n19 ) ( * Nl2arg62 lam11n20 ) ) 0 ) ( = ( + ( * ( - 1 ) lam11n1 ) ( * 1 lam11n4 ) ( * 1 lam11n15 ) ( * 1 lam11n16 ) ( * 1 lam11n17 ) ) 0 ) ( = ( + ( * 1 lam11n6 ) ( * ( - 1 ) lam11n11 ) ) 0 ) ( = ( + ( * 1 lam11n7 ) ( * ( - 1 ) lam11n12 ) ) 0 ) ( = ( + ( * 1 lam11n8 ) ( * ( - 1 ) lam11n13 ) ) 0 ) ( = ( * ( - 1 ) lam11n2 ) 0 ) ( = ( * ( - 1 ) lam11n3 ) 0 ) ) ))
(check-sat)
(exit)
